# Pulseq sequence file
# Created by MATLAB mr toolbox

[VERSION]
major 1
minor 2
revision 1

[DEFINITIONS]
FOV 220 220 3 
Name gre 

# Format of blocks:
#  #  D RF  GX  GY  GZ ADC
[BLOCKS]
 1  0  1   0   0   0  0
 2  0  0   1   2   0  0
 3  1  0   0   0   0  0
 4  0  0   3   0   0  1
 5  2  0   4   5   0  0
 6  0  2   0   0   0  0
 7  0  0   1   6   0  0
 8  1  0   0   0   0  0
 9  0  0   3   0   0  2
10  2  0   4   7   0  0
11  0  3   0   0   0  0
12  0  0   1   8   0  0
13  1  0   0   0   0  0
14  0  0   3   0   0  3
15  2  0   4   9   0  0
16  0  4   0   0   0  0
17  0  0   1  10   0  0
18  1  0   0   0   0  0
19  0  0   3   0   0  4
20  2  0   4  11   0  0
21  0  5   0   0   0  0
22  0  0   1  12   0  0
23  1  0   0   0   0  0
24  0  0   3   0   0  5
25  2  0   4  13   0  0
26  0  6   0   0   0  0
27  0  0   1  14   0  0
28  1  0   0   0   0  0
29  0  0   3   0   0  6
30  2  0   4  15   0  0
31  0  7   0   0   0  0
32  0  0   1  16   0  0
33  1  0   0   0   0  0
34  0  0   3   0   0  7
35  2  0   4  17   0  0
36  0  8   0   0   0  0
37  0  0   1  18   0  0
38  1  0   0   0   0  0
39  0  0   3   0   0  8
40  2  0   4  19   0  0
41  0  9   0   0   0  0
42  0  0   1  20   0  0
43  1  0   0   0   0  0
44  0  0   3   0   0  9
45  2  0   4  21   0  0
46  0 10   0   0   0  0
47  0  0   1  19   0  0
48  1  0   0   0   0  0
49  0  0   3   0   0 10
50  2  0   4  18   0  0
51  0  6   0   0   0  0
52  0  0   1  17   0  0
53  1  0   0   0   0  0
54  0  0   3   0   0  6
55  2  0   4  16   0  0
56  0 11   0   0   0  0
57  0  0   1  15   0  0
58  1  0   0   0   0  0
59  0  0   3   0   0 11
60  2  0   4  14   0  0
61  0 12   0   0   0  0
62  0  0   1  13   0  0
63  1  0   0   0   0  0
64  0  0   3   0   0 12
65  2  0   4  12   0  0
66  0 13   0   0   0  0
67  0  0   1  11   0  0
68  1  0   0   0   0  0
69  0  0   3   0   0 13
70  2  0   4  10   0  0
71  0 14   0   0   0  0
72  0  0   1   9   0  0
73  1  0   0   0   0  0
74  0  0   3   0   0 14
75  2  0   4   8   0  0
76  0  1   0   0   0  0
77  0  0   1   7   0  0
78  1  0   0   0   0  0
79  0  0   3   0   0  1
80  2  0   4   6   0  0

# Format of RF events:
# id amplitude mag_id phase_id delay freq phase
# ..        Hz   ....     ....    us   Hz   rad
[RF]
1      6.94444 1 2 100 0 0
2      6.94444 1 2 100 0 2.04204
3      6.94444 1 2 100 0 6.12611
4      6.94444 1 2 100 0 5.96903
5      6.94444 1 2 100 0 1.5708
6      6.94444 1 2 100 0 5.49779
7      6.94444 1 2 100 0 5.18363
8      6.94444 1 2 100 0 0.628319
9      6.94444 1 2 100 0 4.39823
10      6.94444 1 2 100 0 3.92699
11      6.94444 1 2 100 0 2.82743
12      6.94444 1 2 100 0 2.19911
13      6.94444 1 2 100 0 3.61283
14      6.94444 1 2 100 0 0.785398

# Format of trapezoid gradients:
# id amplitude rise flat fall delay
# ..      Hz/m   us   us   us    us
[TRAP]
 1     -18301.7  10 1980  10   0
 2     -18273.2  10 1980  10   0
 3      11363.6  10 6400  10   0
 4  1.11888e+06  10  120  10   0
 5      18273.2  10 1980  10   0
 6       -15989  10 1980  10   0
 7        15989  10 1980  10   0
 8     -13704.9  10 1980  10   0
 9      13704.9  10 1980  10   0
10     -11420.7  10 1980  10   0
11      11420.7  10 1980  10   0
12     -9136.59  10 1980  10   0
13      9136.59  10 1980  10   0
14     -6852.44  10 1980  10   0
15      6852.44  10 1980  10   0
16      -4568.3  10 1980  10   0
17       4568.3  10 1980  10   0
18     -2284.15  10 1980  10   0
19      2284.15  10 1980  10   0
20            0   0 2000   0   0
21           -0   0 2000   0   0

# Format of ADC events:
# id num dwell delay freq phase
# ..  ..    ns    us   Hz   rad
[ADC]
1 16 400000 10 0 0
2 16 400000 10 0 2.04204
3 16 400000 10 0 6.12611
4 16 400000 10 0 5.96903
5 16 400000 10 0 1.5708
6 16 400000 10 0 5.49779
7 16 400000 10 0 5.18363
8 16 400000 10 0 0.628319
9 16 400000 10 0 4.39823
10 16 400000 10 0 3.92699
11 16 400000 10 0 2.82743
12 16 400000 10 0 2.19911
13 16 400000 10 0 3.61283
14 16 400000 10 0 0.785398

# Format of delays:
# id delay (us)
[DELAYS]
1 8590
2 95830

# Sequence Shapes
[SHAPES]

shape_id 1
num_samples 4020
1
0
0
3997
-1
0
0
17

shape_id 2
num_samples 4020
0
0
4018

